c description: Tseitin formula on , with odd charge
c generator: CNFgen (0.9.0)
c copyright: (C) 2012-2020 Massimo Lauria <massimo.lauria@uniroma1.it>
c url: https://massimolauria.net/cnfgen
c
p cnf 20 158
1 2 3 4 5 6 7 0
1 2 3 4 5 -6 -7 0
1 2 3 4 -5 6 -7 0
1 2 3 4 -5 -6 7 0
1 2 3 -4 5 6 -7 0
1 2 3 -4 5 -6 7 0
1 2 3 -4 -5 6 7 0
1 2 3 -4 -5 -6 -7 0
1 2 -3 4 5 6 -7 0
1 2 -3 4 5 -6 7 0
1 2 -3 4 -5 6 7 0
1 2 -3 4 -5 -6 -7 0
1 2 -3 -4 5 6 7 0
1 2 -3 -4 5 -6 -7 0
1 2 -3 -4 -5 6 -7 0
1 2 -3 -4 -5 -6 7 0
1 -2 3 4 5 6 -7 0
1 -2 3 4 5 -6 7 0
1 -2 3 4 -5 6 7 0
1 -2 3 4 -5 -6 -7 0
1 -2 3 -4 5 6 7 0
1 -2 3 -4 5 -6 -7 0
1 -2 3 -4 -5 6 -7 0
1 -2 3 -4 -5 -6 7 0
1 -2 -3 4 5 6 7 0
1 -2 -3 4 5 -6 -7 0
1 -2 -3 4 -5 6 -7 0
1 -2 -3 4 -5 -6 7 0
1 -2 -3 -4 5 6 -7 0
1 -2 -3 -4 5 -6 7 0
1 -2 -3 -4 -5 6 7 0
1 -2 -3 -4 -5 -6 -7 0
-1 2 3 4 5 6 -7 0
-1 2 3 4 5 -6 7 0
-1 2 3 4 -5 6 7 0
-1 2 3 4 -5 -6 -7 0
-1 2 3 -4 5 6 7 0
-1 2 3 -4 5 -6 -7 0
-1 2 3 -4 -5 6 -7 0
-1 2 3 -4 -5 -6 7 0
-1 2 -3 4 5 6 7 0
-1 2 -3 4 5 -6 -7 0
-1 2 -3 4 -5 6 -7 0
-1 2 -3 4 -5 -6 7 0
-1 2 -3 -4 5 6 -7 0
-1 2 -3 -4 5 -6 7 0
-1 2 -3 -4 -5 6 7 0
-1 2 -3 -4 -5 -6 -7 0
-1 -2 3 4 5 6 7 0
-1 -2 3 4 5 -6 -7 0
-1 -2 3 4 -5 6 -7 0
-1 -2 3 4 -5 -6 7 0
-1 -2 3 -4 5 6 -7 0
-1 -2 3 -4 5 -6 7 0
-1 -2 3 -4 -5 6 7 0
-1 -2 3 -4 -5 -6 -7 0
-1 -2 -3 4 5 6 -7 0
-1 -2 -3 4 5 -6 7 0
-1 -2 -3 4 -5 6 7 0
-1 -2 -3 4 -5 -6 -7 0
-1 -2 -3 -4 5 6 7 0
-1 -2 -3 -4 5 -6 -7 0
-1 -2 -3 -4 -5 6 -7 0
-1 -2 -3 -4 -5 -6 7 0
1 8 9 10 11 -12 0
1 8 9 10 -11 12 0
1 8 9 -10 11 12 0
1 8 9 -10 -11 -12 0
1 8 -9 10 11 12 0
1 8 -9 10 -11 -12 0
1 8 -9 -10 11 -12 0
1 8 -9 -10 -11 12 0
1 -8 9 10 11 12 0
1 -8 9 10 -11 -12 0
1 -8 9 -10 11 -12 0
1 -8 9 -10 -11 12 0
1 -8 -9 10 11 -12 0
1 -8 -9 10 -11 12 0
1 -8 -9 -10 11 12 0
1 -8 -9 -10 -11 -12 0
-1 8 9 10 11 12 0
-1 8 9 10 -11 -12 0
-1 8 9 -10 11 -12 0
-1 8 9 -10 -11 12 0
-1 8 -9 10 11 -12 0
-1 8 -9 10 -11 12 0
-1 8 -9 -10 11 12 0
-1 8 -9 -10 -11 -12 0
-1 -8 9 10 11 -12 0
-1 -8 9 10 -11 12 0
-1 -8 9 -10 11 12 0
-1 -8 9 -10 -11 -12 0
-1 -8 -9 10 11 12 0
-1 -8 -9 10 -11 -12 0
-1 -8 -9 -10 11 -12 0
-1 -8 -9 -10 -11 12 0
2 8 13 -14 0
2 8 -13 14 0
2 -8 13 14 0
2 -8 -13 -14 0
-2 8 13 14 0
-2 8 -13 -14 0
-2 -8 13 -14 0
-2 -8 -13 14 0
3 9 13 15 -16 0
3 9 13 -15 16 0
3 9 -13 15 16 0
3 9 -13 -15 -16 0
3 -9 13 15 16 0
3 -9 13 -15 -16 0
3 -9 -13 15 -16 0
3 -9 -13 -15 16 0
-3 9 13 15 16 0
-3 9 13 -15 -16 0
-3 9 -13 15 -16 0
-3 9 -13 -15 16 0
-3 -9 13 15 -16 0
-3 -9 13 -15 16 0
-3 -9 -13 15 16 0
-3 -9 -13 -15 -16 0
-4 0
10 15 17 -18 0
10 15 -17 18 0
10 -15 17 18 0
10 -15 -17 -18 0
-10 15 17 18 0
-10 15 -17 -18 0
-10 -15 17 -18 0
-10 -15 -17 18 0
5 17 -19 0
5 -17 19 0
-5 17 19 0
-5 -17 -19 0
11 18 19 -20 0
11 18 -19 20 0
11 -18 19 20 0
11 -18 -19 -20 0
-11 18 19 20 0
-11 18 -19 -20 0
-11 -18 19 -20 0
-11 -18 -19 20 0
-6 0
7 12 14 16 -20 0
7 12 14 -16 20 0
7 12 -14 16 20 0
7 12 -14 -16 -20 0
7 -12 14 16 20 0
7 -12 14 -16 -20 0
7 -12 -14 16 -20 0
7 -12 -14 -16 20 0
-7 12 14 16 20 0
-7 12 14 -16 -20 0
-7 12 -14 16 -20 0
-7 12 -14 -16 20 0
-7 -12 14 16 -20 0
-7 -12 14 -16 20 0
-7 -12 -14 16 20 0
-7 -12 -14 -16 -20 0